(set-info :source |printed by MathSAT|)
(declare-fun call_voiture.bump () Bool)
(declare-fun stop.next () Bool)
(declare-fun call_excludes2.excludes.next () Bool)
(declare-fun time.next () Int)
(declare-fun call_Sofar.flby.next () Bool)
(declare-fun second () Bool)
(declare-fun call_voiture.ite.next () Int)
(declare-fun call_voiture.stop () Bool)
(declare-fun call_voiture.flby3.next () Bool)
(declare-fun meter.next () Bool)
(declare-fun call_voiture.move () Bool)
(declare-fun param_m () Bool)
(declare-fun toofast () Bool)
(declare-fun call_voiture.ite3.next () Int)
(declare-fun call_voiture.ite2 () Int)
(declare-fun _OK_.next () Bool)
(declare-fun second.next () Bool)
(declare-fun call_voiture.time.next () Int)
(declare-fun call_voiture.flby4.next () Int)
(declare-fun param_m.next () Bool)
(declare-fun call_voiture.flby6.next () Int)
(declare-fun call_voiture.ite4.next () Int)
(declare-fun call_voiture.flby5 () Int)
(declare-fun speed () Int)
(declare-fun bump () Bool)
(declare-fun call_voiture.bump.next () Bool)
(declare-fun call_voiture.flby5.next () Int)
(declare-fun call_voiture.ite2.next () Int)
(declare-fun call_voiture.dist.next () Int)
(declare-fun speed.next () Int)
(declare-fun call_voiture.flby2 () Bool)
(declare-fun call_voiture.flby4 () Int)
(declare-fun call_voiture.stop.next () Bool)
(declare-fun bump.next () Bool)
(declare-fun call_voiture.toofast () Bool)
(declare-fun call_Sofar.Sofar () Bool)
(declare-fun call_voiture.dist () Int)
(declare-fun call_voiture.flby () Bool)
(declare-fun env () Bool)
(declare-fun env.next () Bool)
(declare-fun call_voiture.meter () Bool)
(declare-fun call_Sofar.flby () Bool)
(declare-fun call_voiture.flby.next () Bool)
(declare-fun call_voiture.move.next () Bool)
(declare-fun move.next () Bool)
(declare-fun toofast.next () Bool)
(declare-fun stop () Bool)
(declare-fun time () Int)
(declare-fun call_voiture.flby6 () Int)
(declare-fun call_voiture.second () Bool)
(declare-fun param_s () Bool)
(declare-fun call_voiture.speed.next () Int)
(declare-fun dist () Int)
(declare-fun call_voiture.speed () Int)
(declare-fun call_voiture.toofast.next () Bool)
(declare-fun call_Sofar.Sofar.next () Bool)
(declare-fun call_voiture.time () Int)
(declare-fun call_voiture.meter.next () Bool)
(declare-fun call_excludes2.excludes () Bool)
(declare-fun dist.next () Int)
(declare-fun _OK_ () Bool)
(declare-fun call_voiture.second.next () Bool)
(declare-fun call_voiture.flby2.next () Bool)
(declare-fun move () Bool)
(declare-fun param_s.next () Bool)
(declare-fun call_voiture.ite3 () Int)
(declare-fun call_voiture.flby3 () Bool)
(declare-fun meter () Bool)
(define-fun .def_522 () Bool (= call_Sofar.flby.next call_Sofar.Sofar.next))
(define-fun .def_518 () Bool (and param_s.next param_m.next))
(define-fun .def_519 () Bool (not .def_518))
(define-fun .def_520 () Bool (= call_excludes2.excludes.next .def_519))
(define-fun .def_516 () Bool (= call_voiture.meter.next call_voiture.flby.next))
(define-fun .def_514 () Bool (= call_voiture.second.next call_voiture.flby2.next))
(define-fun .def_511 () Bool (= call_voiture.move.next call_voiture.flby3.next))
(define-fun .def_508 () Bool (= call_voiture.ite3.next 0))
(define-fun .def_504 () Bool (not call_voiture.move.next))
(define-fun .def_505 () Bool (or call_voiture.second.next .def_504))
(define-fun .def_507 () Bool (not .def_505))
(define-fun .def_509 () Bool (or .def_507 .def_508))
(define-fun .def_503 () Bool (= call_voiture.ite2.next call_voiture.ite3.next))
(define-fun .def_506 () Bool (or .def_503 .def_505))
(define-fun .def_510 () Bool (and .def_506 .def_509))
(define-fun .def_512 () Bool (and .def_510 .def_511))
(define-fun .def_501 () Bool (= call_voiture.flby6.next call_voiture.time.next))
(define-fun .def_499 () Bool (= call_voiture.flby5.next call_voiture.speed.next))
(define-fun .def_497 () Bool (= call_voiture.flby4.next call_voiture.dist.next))
(define-fun .def_494 () Bool (= call_voiture.dist.next 10))
(define-fun .def_495 () Bool (= call_voiture.bump.next .def_494))
(define-fun .def_491 () Bool (<= 4 call_voiture.time.next))
(define-fun .def_492 () Bool (= call_voiture.stop.next .def_491))
(define-fun .def_488 () Bool (<= 3 call_voiture.speed.next))
(define-fun .def_489 () Bool (= call_voiture.toofast.next .def_488))
(define-fun .def_486 () Bool (= env.next call_Sofar.Sofar.next))
(define-fun .def_483 () Bool (= call_voiture.meter.next meter.next))
(define-fun .def_480 () Bool (= call_voiture.second.next second.next))
(define-fun .def_477 () Bool (= call_voiture.move.next move.next))
(define-fun .def_474 () Bool (= time.next call_voiture.time.next))
(define-fun .def_470 () Bool (= speed.next call_voiture.speed.next))
(define-fun .def_466 () Bool (= dist.next call_voiture.dist.next))
(define-fun .def_463 () Bool (= bump.next call_voiture.bump.next))
(define-fun .def_459 () Bool (= stop.next call_voiture.stop.next))
(define-fun .def_455 () Bool (= toofast.next call_voiture.toofast.next))
(define-fun .def_449 () Bool (<= 11 dist.next))
(define-fun .def_450 () Bool (not .def_449))
(define-fun .def_447 () Bool (not env.next))
(define-fun .def_451 () Bool (or .def_447 .def_450))
(define-fun .def_452 () Bool (= _OK_.next .def_451))
(define-fun .def_456 () Bool (and .def_452 .def_455))
(define-fun .def_460 () Bool (and .def_456 .def_459))
(define-fun .def_464 () Bool (and .def_460 .def_463))
(define-fun .def_467 () Bool (and .def_464 .def_466))
(define-fun .def_471 () Bool (and .def_467 .def_470))
(define-fun .def_475 () Bool (and .def_471 .def_474))
(define-fun .def_478 () Bool (and .def_475 .def_477))
(define-fun .def_481 () Bool (and .def_478 .def_480))
(define-fun .def_484 () Bool (and .def_481 .def_483))
(define-fun .def_487 () Bool (and .def_484 .def_486))
(define-fun .def_490 () Bool (and .def_487 .def_489))
(define-fun .def_493 () Bool (and .def_490 .def_492))
(define-fun .def_496 () Bool (and .def_493 .def_495))
(define-fun .def_498 () Bool (and .def_496 .def_497))
(define-fun .def_500 () Bool (and .def_498 .def_499))
(define-fun .def_502 () Bool (and .def_500 .def_501))
(define-fun .def_513 () Bool (and .def_502 .def_512))
(define-fun .def_515 () Bool (and .def_513 .def_514))
(define-fun .def_517 () Bool (and .def_515 .def_516))
(define-fun .def_521 () Bool (and .def_517 .def_520))
(define-fun .def_523 () Bool (and .def_521 .def_522))
(define-fun .def_364 () Bool (= call_Sofar.Sofar call_Sofar.flby))
(define-fun .def_358 () Bool (and param_s param_m))
(define-fun .def_359 () Bool (not .def_358))
(define-fun .def_361 () Bool (= .def_359 call_excludes2.excludes))
(define-fun .def_354 () Bool (= call_voiture.meter call_voiture.flby))
(define-fun .def_351 () Bool (= call_voiture.second call_voiture.flby2))
(define-fun .def_347 () Bool (= call_voiture.move call_voiture.flby3))
(define-fun .def_343 () Bool (= call_voiture.ite3 0))
(define-fun .def_339 () Bool (not call_voiture.move))
(define-fun .def_340 () Bool (or call_voiture.second .def_339))
(define-fun .def_342 () Bool (not .def_340))
(define-fun .def_344 () Bool (or .def_342 .def_343))
(define-fun .def_338 () Bool (= call_voiture.ite2 call_voiture.ite3))
(define-fun .def_341 () Bool (or .def_338 .def_340))
(define-fun .def_345 () Bool (and .def_341 .def_344))
(define-fun .def_348 () Bool (and .def_345 .def_347))
(define-fun .def_334 () Bool (= call_voiture.time call_voiture.flby6))
(define-fun .def_331 () Bool (= call_voiture.speed call_voiture.flby5))
(define-fun .def_328 () Bool (= call_voiture.dist call_voiture.flby4))
(define-fun .def_324 () Bool (= call_voiture.dist 10))
(define-fun .def_325 () Bool (= call_voiture.bump .def_324))
(define-fun .def_321 () Bool (<= 4 call_voiture.time))
(define-fun .def_322 () Bool (= call_voiture.stop .def_321))
(define-fun .def_318 () Bool (<= 3 call_voiture.speed))
(define-fun .def_319 () Bool (= call_voiture.toofast .def_318))
(define-fun .def_316 () Bool (= env call_Sofar.Sofar))
(define-fun .def_313 () Bool (= meter call_voiture.meter))
(define-fun .def_309 () Bool (= second call_voiture.second))
(define-fun .def_305 () Bool (= move call_voiture.move))
(define-fun .def_301 () Bool (= time call_voiture.time))
(define-fun .def_297 () Bool (= speed call_voiture.speed))
(define-fun .def_293 () Bool (= dist call_voiture.dist))
(define-fun .def_290 () Bool (= bump call_voiture.bump))
(define-fun .def_286 () Bool (= stop call_voiture.stop))
(define-fun .def_282 () Bool (= toofast call_voiture.toofast))
(define-fun .def_276 () Bool (<= 11 dist))
(define-fun .def_277 () Bool (not .def_276))
(define-fun .def_274 () Bool (not env))
(define-fun .def_278 () Bool (or .def_274 .def_277))
(define-fun .def_279 () Bool (= _OK_ .def_278))
(define-fun .def_283 () Bool (and .def_279 .def_282))
(define-fun .def_287 () Bool (and .def_283 .def_286))
(define-fun .def_291 () Bool (and .def_287 .def_290))
(define-fun .def_294 () Bool (and .def_291 .def_293))
(define-fun .def_298 () Bool (and .def_294 .def_297))
(define-fun .def_302 () Bool (and .def_298 .def_301))
(define-fun .def_306 () Bool (and .def_302 .def_305))
(define-fun .def_310 () Bool (and .def_306 .def_309))
(define-fun .def_314 () Bool (and .def_310 .def_313))
(define-fun .def_317 () Bool (and .def_314 .def_316))
(define-fun .def_320 () Bool (and .def_317 .def_319))
(define-fun .def_323 () Bool (and .def_320 .def_322))
(define-fun .def_326 () Bool (and .def_323 .def_325))
(define-fun .def_329 () Bool (and .def_326 .def_328))
(define-fun .def_332 () Bool (and .def_329 .def_331))
(define-fun .def_335 () Bool (and .def_332 .def_334))
(define-fun .def_349 () Bool (and .def_335 .def_348))
(define-fun .def_352 () Bool (and .def_349 .def_351))
(define-fun .def_355 () Bool (and .def_352 .def_354))
(define-fun .def_362 () Bool (and .def_355 .def_361))
(define-fun .def_365 () Bool (and .def_362 .def_364))
(define-fun .def_524 () Bool (and .def_365 .def_523))
(define-fun .def_441 () Bool (or call_Sofar.Sofar call_excludes2.excludes.next))
(define-fun .def_443 () Bool (= .def_441 call_Sofar.flby.next))
(define-fun .def_438 () Bool (= call_voiture.ite4.next call_voiture.flby6.next))
(define-fun .def_435 () Bool (= call_voiture.flby5.next call_voiture.ite3.next))
(define-fun .def_431 () Bool (= call_voiture.ite.next call_voiture.flby4.next))
(define-fun .def_425 () Bool (not call_voiture.bump))
(define-fun .def_423 () Bool (not call_voiture.toofast))
(define-fun .def_421 () Bool (not call_voiture.stop))
(define-fun .def_422 () Bool (and call_voiture.move .def_421))
(define-fun .def_424 () Bool (and .def_422 .def_423))
(define-fun .def_426 () Bool (and .def_424 .def_425))
(define-fun .def_428 () Bool (= .def_426 call_voiture.flby3.next))
(define-fun .def_419 () Bool (= param_s.next call_voiture.flby2.next))
(define-fun .def_412 () Bool (not param_s.next))
(define-fun .def_414 () Bool (and .def_412 param_m.next))
(define-fun .def_416 () Bool (= .def_414 call_voiture.flby.next))
(define-fun .def_407 () Bool (not call_voiture.second.next))
(define-fun .def_404 () Int (* (- 1) call_voiture.ite4.next))
(define-fun .def_405 () Int (+ call_voiture.time .def_404))
(define-fun .def_406 () Bool (= .def_405 (- 1)))
(define-fun .def_408 () Bool (or .def_406 .def_407))
(define-fun .def_401 () Bool (= call_voiture.time call_voiture.ite4.next))
(define-fun .def_403 () Bool (or .def_401 call_voiture.second.next))
(define-fun .def_409 () Bool (and .def_403 .def_408))
(define-fun .def_394 () Int (* (- 1) call_voiture.ite.next))
(define-fun .def_395 () Int (+ call_voiture.dist .def_394))
(define-fun .def_396 () Bool (= .def_395 (- 1)))
(define-fun .def_383 () Bool (and call_voiture.move.next call_voiture.meter.next))
(define-fun .def_388 () Bool (not .def_383))
(define-fun .def_397 () Bool (or .def_388 .def_396))
(define-fun .def_392 () Bool (= call_voiture.dist call_voiture.ite.next))
(define-fun .def_393 () Bool (or .def_383 .def_392))
(define-fun .def_398 () Bool (and .def_393 .def_397))
(define-fun .def_385 () Int (* (- 1) call_voiture.ite2.next))
(define-fun .def_386 () Int (+ call_voiture.speed .def_385))
(define-fun .def_387 () Bool (= .def_386 (- 2)))
(define-fun .def_389 () Bool (or .def_387 .def_388))
(define-fun .def_380 () Bool (= call_voiture.speed call_voiture.ite2.next))
(define-fun .def_384 () Bool (or .def_380 .def_383))
(define-fun .def_390 () Bool (and .def_384 .def_389))
(define-fun .def_399 () Bool (and .def_390 .def_398))
(define-fun .def_410 () Bool (and .def_399 .def_409))
(define-fun .def_417 () Bool (and .def_410 .def_416))
(define-fun .def_420 () Bool (and .def_417 .def_419))
(define-fun .def_429 () Bool (and .def_420 .def_428))
(define-fun .def_432 () Bool (and .def_429 .def_431))
(define-fun .def_436 () Bool (and .def_432 .def_435))
(define-fun .def_439 () Bool (and .def_436 .def_438))
(define-fun .def_444 () Bool (and .def_439 .def_443))
(define-fun .def_525 () Bool (and .def_444 .def_524))
(assert .def_525)
